
n_res = 4;
rcap = [75, 67, 135, 125];
rtype = [1, 1, 2, 2];
n_tasks = 50;
modes =  [{1, 2, 3}, {4, 5, 6}, {7, 8, 9}, {10, 11, 12}, {13, 14, 15}, {16, 17, 18}, {19, 20, 21}, {22, 23, 24}, {25, 26, 27}, {28, 29, 30}, {31, 32, 33}, {34, 35, 36}, {37, 38, 39}, {40, 41, 42}, {43, 44, 45}, {46, 47, 48}, {49, 50, 51}, {52, 53, 54}, {55, 56, 57}, {58, 59, 60}, {61, 62, 63}, {64, 65, 66}, {67, 68, 69}, {70, 71, 72}, {73, 74, 75}, {76, 77, 78}, {79, 80, 81}, {82, 83, 84}, {85, 86, 87}, {88, 89, 90}, {91, 92, 93}, {94, 95, 96}, {97, 98, 99}, {100, 101, 102}, {103, 104, 105}, {106, 107, 108}, {109, 110, 111}, {112, 113, 114}, {115, 116, 117}, {118, 119, 120}, {121, 122, 123}, {124, 125, 126}, {127, 128, 129}, {130, 131, 132}, {133, 134, 135}, {136, 137, 138}, {139, 140, 141}, {142, 143, 144}, {145, 146, 147}, {148, 149, 150}];
succ =  [{50, 48, 47, 46, 27, 25, 24, 23, 22, 11}, {50, 49, 48, 47, 46, 30, 29, 24, 22, 21, 18, 16}, {50, 47, 44, 43, 39, 32, 31, 30, 29, 23, 22, 20}, {50, 48, 43, 41, 32, 30, 26, 25, 21, 20}, {47, 34, 33, 29, 28, 23, 22, 21, 18}, {49, 46, 43, 41, 38, 30, 27, 22, 21}, {48, 45, 43, 42, 41, 40, 38, 32, 29, 25}, {49, 48, 45, 44, 43, 40, 39, 36, 30, 23}, {47, 46, 45, 44, 43, 38, 30, 29, 21}, {50, 49, 41, 38, 37, 29, 25, 22}, {45, 43, 41, 38, 31, 30, 29, 21}, {47, 46, 43, 42, 41, 32, 18}, {47, 46, 45, 44, 42, 41, 40, 38, 37, 35, 31}, {46, 44, 43, 42, 41, 39, 37, 35, 31}, {43, 37, 28, 20}, {45, 44, 43, 41, 36, 35, 27}, {44, 41, 40, 38, 31, 29}, {40, 39, 38, 37, 36, 35}, {49, 45, 38, 35, 31}, {46, 40, 38, 36, 35}, {42, 40, 39, 36}, {45, 40, 36, 35}, {41, 38, 37, 35}, {44, 43, 42, 41}, {44, 39, 36}, {39, 37, 35}, {39, 37}, {46, 42}, {35}, {42}, {36}, {37}, {41}, {37}, {}, {}, {}, {}, {}, {}, {}, {}, {}, {}, {}, {}, {}, {}, {}, {}];
n_opt = 150;
dur = [2, 2, 3, 2, 4, 4, 2, 8, 10, 6, 7, 7, 2, 3, 7, 3, 5, 10, 1, 8, 9, 5, 9, 10, 2, 3, 6, 3, 5, 7, 4, 6, 10, 3, 5, 7, 1, 3, 6, 8, 10, 10, 4, 5, 8, 2, 3, 6, 1, 6, 8, 3, 10, 10, 1, 3, 8, 2, 8, 10, 1, 4, 6, 4, 8, 8, 5, 5, 9, 3, 4, 9, 3, 8, 9, 6, 7, 8, 3, 4, 5, 8, 9, 10, 3, 4, 9, 2, 3, 6, 2, 5, 7, 1, 6, 9, 1, 6, 8, 3, 4, 10, 4, 8, 9, 5, 5, 6, 5, 8, 10, 5, 6, 8, 1, 4, 6, 4, 6, 10, 5, 5, 7, 5, 7, 8, 1, 5, 9, 6, 8, 10, 1, 3, 9, 1, 1, 8, 6, 6, 10, 3, 5, 8, 2, 4, 6, 4, 5, 9];
rreq = [|0, 5, 3, 9, 6, 0, 0, 0, 0, 8, 0, 3, 0, 0, 0, 0, 7, 7, 6, 4, 3, 5, 3, 2, 7, 0, 3, 0, 9, 7, 8, 0, 0, 9, 0, 0, 0, 10, 10, 0, 0, 0, 0, 0, 5, 0, 0, 6, 8, 0, 0, 0, 0, 5, 9, 0, 0, 0, 7, 0, 4, 0, 0, 10, 9, 0, 4, 3, 0, 0, 0, 4, 6, 5, 0, 8, 0, 0, 0, 4, 1, 1, 1, 1, 6, 0, 3, 6, 0, 0, 0, 0, 3, 0, 1, 1, 0, 0, 0, 0, 3, 0, 0, 5, 5, 8, 0, 0, 0, 4, 0, 0, 10, 10, 6, 0, 3, 4, 0, 0, 0, 6, 0, 0, 6, 0, 0, 6, 6, 0, 0, 2, 0, 8, 0, 0, 7, 7, 0, 0, 0, 0, 0, 0, 0, 5, 0, 5, 3, 3
 |2, 0, 0, 0, 0, 4, 9, 9, 9, 0, 1, 0, 9, 4, 3, 9, 0, 0, 0, 0, 0, 0, 0, 0, 0, 8, 0, 9, 0, 0, 0, 2, 1, 0, 3, 2, 7, 0, 0, 9, 8, 8, 7, 5, 0, 2, 1, 0, 0, 3, 3, 7, 6, 0, 0, 7, 4, 9, 0, 8, 0, 6, 5, 0, 0, 2, 0, 0, 1, 8, 5, 0, 0, 0, 4, 0, 3, 3, 7, 0, 0, 0, 0, 0, 0, 4, 0, 0, 6, 4, 8, 6, 0, 9, 0, 0, 9, 6, 5, 10, 0, 1, 3, 0, 0, 0, 8, 7, 4, 0, 1, 10, 0, 0, 0, 8, 0, 0, 6, 6, 7, 0, 6, 8, 0, 2, 2, 0, 0, 10, 10, 0, 2, 0, 2, 9, 0, 0, 9, 5, 5, 5, 4, 3, 9, 0, 6, 0, 0, 0
 |0, 0, 0, 0, 4, 0, 0, 0, 3, 0, 5, 4, 4, 0, 0, 0, 8, 0, 8, 7, 4, 10, 8, 8, 2, 2, 0, 3, 0, 0, 8, 6, 4, 7, 6, 0, 0, 0, 0, 0, 9, 0, 0, 0, 6, 0, 0, 3, 5, 0, 0, 0, 3, 1, 0, 5, 5, 5, 0, 4, 3, 2, 1, 0, 0, 0, 7, 0, 0, 0, 5, 4, 4, 3, 0, 0, 8, 7, 0, 4, 4, 0, 0, 0, 9, 0, 0, 0, 8, 0, 3, 2, 0, 0, 5, 4, 10, 8, 5, 4, 4, 0, 5, 0, 0, 5, 0, 0, 0, 0, 3, 3, 3, 0, 10, 0, 0, 0, 0, 3, 0, 8, 7, 4, 3, 0, 10, 6, 5, 0, 0, 0, 0, 0, 0, 8, 0, 0, 8, 0, 0, 6, 0, 0, 0, 0, 0, 0, 0, 3
 |4, 3, 1, 9, 0, 8, 5, 4, 0, 3, 0, 0, 0, 1, 1, 8, 0, 3, 0, 0, 0, 0, 0, 0, 0, 0, 1, 0, 2, 2, 0, 0, 0, 0, 0, 2, 2, 2, 1, 5, 0, 5, 4, 4, 0, 8, 6, 0, 0, 9, 8, 7, 0, 0, 10, 0, 0, 0, 3, 0, 0, 0, 0, 7, 5, 3, 0, 3, 2, 8, 0, 0, 0, 0, 5, 4, 0, 0, 7, 0, 0, 8, 6, 5, 0, 3, 1, 6, 0, 4, 0, 0, 3, 4, 0, 0, 0, 0, 0, 0, 0, 3, 0, 6, 5, 0, 4, 3, 3, 2, 0, 0, 0, 3, 0, 6, 5, 9, 7, 0, 8, 0, 0, 0, 0, 2, 0, 0, 0, 6, 5, 5, 9, 8, 8, 0, 2, 1, 0, 2, 1, 0, 4, 4, 8, 7, 6, 7, 4, 0|];